c This is an instance of the exact track of PACE 2020 Challenge, see https://pacechallenge.org/2020/ 
c TYPE: biology 
c ORIGIN: networkrepository.com 
c DESCRIPTION: ENZYMES is a dataset of protein tertiary structures obtained from (Borgwardt et al., 2005)  consisting of 600 enzymes from the BRENDA enzyme database (Schomburg et al., 2004). Refernces: K. M. Borgwardt, C. S. Ong, S. Schoenauer, S. V. N. Vishwanathan, A. J. Smola, and H. P. Kriegel. Protein function prediction via graph kernels. Bioinformatics, 21(Suppl 1):i47–i56, Jun 2005. I. Schomburg, A. Chang, C. Ebeling, M. Gremse, C. Heldt, G. Huhn, and D. Schomburg. Brenda, the enzyme database: updates and major new developments. Nucleic Acids Research, 32D:431–433, 2015 
p tdp 66 120
1 2
1 25
1 38
1 46
2 3
2 4
3 25
3 38
3 46
3 55
4 38
4 46
4 56
5 6
5 27
5 39
5 51
5 57
5 58
6 7
6 8
7 39
7 9
7 12
7 13
8 27
8 51
8 57
9 10
9 26
9 28
9 29
9 41
10 11
10 12
10 13
11 54
11 63
11 64
12 26
12 29
13 28
13 41
14 15
14 31
14 43
14 52
14 61
14 62
15 16
15 17
15 18
16 23
16 24
16 45
17 31
17 61
18 43
18 62
19 20
19 21
20 21
20 22
20 23
20 24
21 22
22 36
22 37
23 32
23 44
24 34
24 32
26 27
26 30
27 28
27 29
28 39
28 42
30 54
30 63
31 32
33 34
33 35
33 36
33 37
34 35
35 36
36 37
36 45
39 40
39 41
40 51
40 58
42 54
42 64
43 44
44 45
46 47
46 48
46 49
47 50
47 55
47 56
48 55
48 59
49 56
49 60
50 51
51 59
51 60
52 53
53 54
54 65
54 66
54 64
61 65
62 66
63 65
63 64
64 66
